 $SYSTEM MWORDS=256 $END
 $GDDI NGROUP=1 $END
 $SCF CONV=1E-7 DIRSCF=.T. NPUNCH=0 DIIS=.F. SOSCF=.T. $END
 $CONTRL NPRINT=-5 ISPHER=1 LOCAL=BOYS
         RUNTYP=OPTIMIZE
 $END
 $STATPT OPTTOL=5.0e-4 NSTEP=2000
      IACTAT(1)=     2128,-2144
 $END
 $INTGRL NINTIC=-150000000 $END
 $BASIS GBASIS=STO NGAUSS=3 $END
 $FMO
      IEFMO=1
      NBODY=2
      RAFO(1)=1,1,1
      RESDIM=2.0 RCORSD=2.0
      NLAYER=2
      NFRAG=143
      ICHARG(1)=  1,  0,  0, -1,  1, -1,  0,  0,  0,  0,
                   0, -1,  0,  0,  0,  0, -1,  0,  0,  0,
                   0,  1, -1,  0,  1,  0,  0,  1,  0,  0,
                   0,  0,  0,  0,  1,  0,  1,  0,  1,  0,
                   0,  0,  0,  0, -1,  0,  0,  0,  0,  1,
                   0, -1,  0,  0,  0,  0,  0,  0,  0,  0,
                   0, -1,  0,  0,  0, -1,  0,  0,  0,  0,
                   0, -1,  0,  0,  0,  0,  0,  0,  0,  0,
                   0,  0,  0,  0, -1,  0,  0, -1,  0, -1,
                   0,  0,  0,  0,  0,  0, -1,  0,  0,  0,
                   1,  1, -1,  1,  0,  0,  0,  0,  0,  0,
                   0,  0,  0,  1,  0,  0,  0,  0,  0, -1,
                   0,  0, -1,  1,  0,  0,  0,  0,  0,  0,
                   1,  1,  0,  0,  0,  0,  0,  0,  0,  0,
                  -1,  2,  2
      FRGNAM(1)=AMINO001, AMINO002, AMINO003, AMINO004, AMINO005,
                 AMINO006, AMINO007, AMINO008, AMINO009, AMINO010,
                 AMINO011, AMINO012, AMINO013, AMINO014, AMINO015,
                 AMINO016, AMINO017, AMINO018, AMINO019, AMINO020,
                 AMINO021, AMINO022, AMINO023, AMINO024, AMINO025,
                 AMINO026, AMINO027, AMINO028, AMINO029, AMINO030,
                 AMINO031, AMINO032, AMINO033, AMINO034, AMINO035,
                 AMINO036, AMINO037, AMINO038, AMINO039, AMINO040,
                 AMINO041, AMINO042, AMINO043, AMINO044, AMINO045,
                 AMINO046, AMINO047, AMINO048, AMINO049, AMINO050,
                 AMINO051, AMINO052, AMINO053, AMINO054, AMINO055,
                 AMINO056, AMINO057, AMINO058, AMINO059, AMINO060,
                 AMINO061, AMINO062, AMINO063, AMINO064, AMINO065,
                 AMINO066, AMINO067, AMINO068, AMINO069, AMINO070,
                 AMINO071, AMINO072, AMINO073, AMINO074, AMINO075,
                 AMINO076, AMINO077, AMINO078, AMINO079, AMINO080,
                 AMINO081, AMINO082, AMINO083, AMINO084, AMINO085,
                 AMINO086, AMINO087, AMINO088, AMINO089, AMINO090,
                 AMINO091, AMINO092, AMINO093, AMINO094, AMINO095,
                 AMINO096, AMINO097, AMINO098, AMINO099, AMINO100,
                 AMINO101, AMINO102, AMINO103, AMINO104, AMINO105,
                 AMINO106, AMINO107, AMINO108, AMINO109, AMINO110,
                 AMINO111, AMINO112, AMINO113, AMINO114, AMINO115,
                 AMINO116, AMINO117, AMINO118, AMINO119, AMINO120,
                 AMINO121, AMINO122, AMINO123, AMINO124, AMINO125,
                 AMINO126, AMINO127, AMINO128, AMINO129, AMINO130,
                 AMINO131, AMINO132, AMINO133, WATER134, WATER135,
                 WATER136, WATER137, WATER138, WATER139, WATER140,
                  None141,  None142,  None143
      MPLEVL(1)=0,0
      INDAT(1)=0
                1    -21     24    -40      0
               22     23     41     42     45    -57      0
               43     44     58     59     62    -76      0
               60     61     77     78     81    -91      0
               79     80     92     93     96   -113      0
               94     95    114    115    118   -128      0
              116    117    129    130    133   -142      0
              131    132    143    144    147   -161      0
              145    146    162    163    166   -177      0
              164    165    178    179    182   -184      0
              180    181    185    186    189   -194      0
              187    188    195    196    199   -209      0
              197    198    210    211    214   -223      0
              212    213    224    225    228   -243      0
              226    227    244    245    248   -264      0
              246    247    265    266    269   -280      0
              267    268    281    282    285   -292      0
              283    284    293    294    297   -299      0
              295    296    300    301    304   -309      0
              302    303    310    311    314   -319      0
              312    313    320    321    324   -333      0
              322    323    334    335    338   -357      0
              336    337    358    359    362   -372      0
              360    361    373    374    377   -386      0
              375    376    387    388    391   -408      0
              389    390    409    410    413   -427      0
              411    412    428    429    432   -434      0
              430    431    435    436    439   -456      0
              437    438    457    458    461   -466      0
              459    460    467    468    471   -473      0
              469    470    474    475    478   -494      0
              476    477    495    496    499   -510      0
              497    498    511    512    515   -524      0
              513    514    525    526    529   -538      0
              527    528    539    540    543   -562      0
              541    542    563    564    567   -569      0
              565    566    570    571    574   -593      0
              572    573    594    595    598   -610      0
              596    597    611    612    615   -632      0
              613    614    633    634    637   -648      0
              635    636    649    650    653   -664      0
              651    652    665    666    669   -678      0
              667    668    679    680    683   -697      0
              681    682    698    699    702   -711      0
              700    701    712    713    716   -723      0
              714    715    724    725    728   -737      0
              726    727    738    739    742   -751      0
              740    741    752    753    756   -765      0
              754    755    766    767    770   -782      0
              768    769    783    784    787   -804      0
              785    786    805    806    809   -818      0
              807    808    819    820    823   -833      0
              821    822    834    835    838   -852      0
              836    837    853    854    857   -869      0
              855    856    870    871    874   -879      0
              872    873    880    881    884   -898      0
              882    883    899    900    903   -919      0
              901    902    920    921    924   -938      0
              922    923    939    940    943   -948      0
              941    942    949    950    953   -967      0
              951    952    968    969    972   -984      0
              970    971    985    986    989   -996      0
              987    988    997    998   1001  -1007      0
              999   1000   1008   1009   1012  -1014      0
             1010   1011   1015   1016   1019  -1033      0
             1017   1018   1034   1035   1038  -1048      0
             1036   1037   1049   1050   1053  -1064      0
             1051   1052   1065   1066   1069  -1078      0
             1067   1068   1079   1080   1083  -1097      0
             1081   1082   1098   1099   1102  -1113      0
             1100   1101   1114   1115   1118  -1127      0
             1116   1117   1128   1129   1132  -1139      0
             1130   1131   1140   1141   1144  -1150      0
             1142   1143   1151   1152   1155  -1167      0
             1153   1154   1168   1169   1172  -1188      0
             1170   1171   1189   1190   1193  -1198      0
             1191   1192   1199   1200   1203  -1217      0
             1201   1202   1218   1219   1222  -1224      0
             1220   1221   1225   1226   1229  -1243      0
             1227   1228   1244   1245   1248  -1262      0
             1246   1247   1263   1264   1267  -1279      0
             1265   1266   1280   1281   1284  -1289      0
             1282   1283   1290   1291   1294  -1306      0
             1292   1293   1307   1308   1311  -1320      0
             1309   1310   1321   1322   1325  -1332      0
             1323   1324   1333   1334   1337  -1349      0
             1335   1336   1350   1351   1354  -1360      0
             1352   1353   1361   1362   1365  -1375      0
             1363   1364   1376   1377   1380  -1386      0
             1378   1379   1387   1388   1391  -1401      0
             1389   1390   1402   1403   1406  -1420      0
             1404   1405   1421   1422   1425  -1436      0
             1423   1424   1437   1438   1441  -1450      0
             1439   1440   1451   1452   1455  -1467      0
             1453   1454   1468   1469   1472  -1486      0
             1470   1471   1487   1488   1491  -1505      0
             1489   1490   1506   1507   1510  -1520      0
             1508   1509   1521   1522   1525  -1537      0
             1523   1524   1538   1539   1542  -1556      0
             1540   1541   1557   1558   1561  -1575      0
             1559   1560   1576   1577   1580  -1597      0
             1578   1579   1598   1599   1602  -1619      0
             1600   1601   1620   1621   1624  -1634      0
             1622   1623   1635   1636   1639  -1656      0
             1637   1638   1657   1658   1661  -1672      0
             1659   1660   1673   1674   1677  -1693      0
             1675   1676   1694   1695   1698  -1712      0
             1696   1697   1713   1714   1717  -1722      0
             1715   1716   1723   1724   1727  -1746      0
             1725   1726   1747   1748   1751  -1762      0
             1749   1750   1763   1764   1767  -1776      0
             1765   1766   1777   1778   1781  -1786      0
             1779   1780   1787   1788   1791  -1803      0
             1789   1790   1804   1805   1808  -1825      0
             1806   1807   1826   1827   1830  -1832      0
             1828   1829   1833   1834   1837  -1851      0
             1835   1836   1852   1853   1856  -1858      0
             1854   1855   1859   1860   1863  -1865      0
             1861   1862   1866   1867   1870  -1879      0
             1868   1869   1880   1881   1884  -1894      0
             1882   1883   1895   1896   1899  -1911      0
             1897   1898   1912   1913   1916  -1927      0
             1914   1915   1928   1929   1932  -1939      0
             1930   1931   1940   1941   1944  -1961      0
             1942   1943   1962   1963   1966  -1980      0
             1964   1965   1981   1982   1985  -1996      0
             1983   1984   1997   1998   2001  -2007      0
             1999   2000   2008   2009   2012  -2017      0
             2010   2011   2018   2019   2022  -2024      0
             2020   2021   2025   2026   2029  -2043      0
             2027   2028   2044   2045   2048  -2067      0
             2046   2047   2068   2069   2072  -2089      0
             2070   2071   2090  -2106      0
             2107  -2109      0
             2110  -2112      0
             2113  -2115      0
             2116  -2118      0
             2119  -2121      0
             2122  -2124      0
             2125  -2127      0
             2128  -2144      0
             2145      0
             2146      0

      LAYER(1)=1,1,1,1,1,1,1,1,1,1,
               1,1,1,1,1,1,2,1,2,1,
               1,1,1,1,1,1,1,1,1,1,
               1,1,1,1,1,1,1,1,1,1,
               1,1,1,1,1,1,1,1,1,1,
               1,2,1,1,1,1,1,1,1,1,
               1,1,1,1,1,1,1,1,1,1,
               1,2,2,1,1,1,1,1,1,1,
               1,1,1,1,1,1,1,1,1,1,
               1,1,1,1,1,1,1,1,1,1,
               1,1,1,1,1,1,1,1,1,1,
               1,2,2,1,1,1,1,1,1,1,
               1,1,2,1,1,1,1,1,1,1,
               2,1,1,2,2,2,2,1,2,2,
               2,2,2
      MODFD=1
      IACTFG(1)=141
 $END
 $FMOPRP NPRINT=9 NGUESS=130 $END
 $FMOBND
       -21        22
       -42        43
       -59        60
       -78        79
       -93        94
      -115       116
      -130       131
      -144       145
      -163       164
      -179       180
      -186       187
      -196       197
      -211       212
      -225       226
      -245       246
      -266       267
      -282       283
      -294       295
      -301       302
      -311       312
      -321       322
      -335       336
      -359       360
      -374       375
      -388       389
      -410       411
      -429       430
      -436       437
      -458       459
      -468       469
      -475       476
      -496       497
      -512       513
      -526       527
      -540       541
      -564       565
      -571       572
      -595       596
      -612       613
      -634       635
      -650       651
      -666       667
      -680       681
      -699       700
      -713       714
      -725       726
      -739       740
      -753       754
      -767       768
      -784       785
      -806       807
      -820       821
      -835       836
      -854       855
      -871       872
      -881       882
      -900       901
      -921       922
      -940       941
      -950       951
      -969       970
      -986       987
      -998       999
     -1009      1010
     -1016      1017
     -1035      1036
     -1050      1051
     -1066      1067
     -1080      1081
     -1099      1100
     -1115      1116
     -1129      1130
     -1141      1142
     -1152      1153
     -1169      1170
     -1190      1191
     -1200      1201
     -1219      1220
     -1226      1227
     -1245      1246
     -1264      1265
     -1281      1282
     -1291      1292
     -1308      1309
     -1322      1323
     -1334      1335
     -1351      1352
     -1362      1363
     -1377      1378
     -1388      1389
     -1403      1404
     -1422      1423
     -1438      1439
     -1452      1453
     -1469      1470
     -1488      1489
     -1507      1508
     -1522      1523
     -1539      1540
     -1558      1559
     -1577      1578
     -1599      1600
     -1621      1622
     -1636      1637
     -1658      1659
     -1674      1675
     -1695      1696
     -1714      1715
     -1724      1725
     -1748      1749
     -1764      1765
     -1778      1779
     -1788      1789
     -1805      1806
     -1827      1828
     -1834      1835
     -1853      1854
     -1860      1861
     -1867      1868
     -1881      1882
     -1896      1897
     -1913      1914
     -1929      1930
     -1941      1942
     -1963      1964
     -1982      1983
     -1998      1999
     -2009      2010
     -2019      2020
     -2026      2027
     -2045      2046
     -2069      2070
 $END
 $DATA

c1
H-1 1
C-1 6
N-1 7
O-1 8
Mg-1 12
S-1 16
H-2 1
C-2 6
N-2 7
O-2 8
Mg-2 12
S-2 16
 $END
 $FMOXYZ
      1      N       -25.394000    17.894000   -19.488000
      2      C       -25.190000    16.900000   -20.558000
      3      C       -26.536000    16.342000   -21.033000
      4      O       -27.430000    16.112000   -20.219000
      5      C       -24.183000    15.796000   -20.144000
      6      C       -24.463000    15.064000   -18.814000
      7      S       -25.477000    13.564000   -18.939000
      8      C       -24.183000    12.342000   -19.274000
      9      H       -24.496000    18.239000   -19.166000
     10      H       -25.946000    18.663000   -19.839000
     11      H       -25.882000    17.458000   -18.719000
     12      H       -24.752000    17.448000   -21.393000
     13      H       -24.063000    15.069000   -20.949000
     14      H       -23.206000    16.269000   -20.053000
     15      H       -23.512000    14.769000   -18.368000
     16      H       -24.924000    15.731000   -18.087000
     17      H       -24.627000    11.375000   -19.510000
     18      H       -23.565000    12.657000   -20.114000
     19      H       -23.540000    12.223000   -18.402000
     20      N       -26.678000    16.148000   -22.353000
     21      C       -27.900000    15.672000   -23.010000
     22      C       -27.934000    14.139000   -23.140000
     23      O       -29.016000    13.567000   -23.263000
     24      C       -27.929000    16.245000   -24.444000
     25      C       -28.301000    17.715000   -24.519000
     26      C       -27.315000    18.713000   -24.366000
     27      C       -29.644000    18.088000   -24.739000
     28      C       -27.673000    20.074000   -24.427000
     29      C       -30.000000    19.449000   -24.805000
     30      C       -29.015000    20.443000   -24.648000
     31      O       -29.358000    21.762000   -24.707000
     32      H       -25.897000    16.369000   -22.954000
     33      H       -28.790000    15.995000   -22.464000
     34      H       -26.966000    16.096000   -24.937000
     35      H       -28.653000    15.703000   -25.056000
     36      H       -26.284000    18.439000   -24.199000
     37      H       -30.406000    17.332000   -24.855000
     38      H       -26.915000    20.835000   -24.308000
     39      H       -31.031000    19.724000   -24.974000
     40      H       -30.280000    21.900000   -24.860000
     41      N       -26.763000    13.486000   -23.137000
     42      C       -26.577000    12.057000   -23.367000
     43      C       -25.226000    11.598000   -22.810000
     44      O       -24.328000    12.413000   -22.590000
     45      C       -26.730000    11.733000   -24.878000
     46      C       -25.656000    12.380000   -25.790000
     47      C       -25.635000    11.827000   -27.218000
     48      O       -26.602000    11.230000   -27.690000
     49      N       -24.512000    12.018000   -27.915000
     50      H       -25.919000    14.025000   -23.004000
     51      H       -27.349000    11.521000   -22.813000
     52      H       -26.696000    10.649000   -25.001000
     53      H       -27.722000    12.028000   -25.221000
     54      H       -25.811000    13.459000   -25.838000
     55      H       -24.658000    12.234000   -25.377000
     56      H       -24.443000    11.688000   -28.865000
     57      H       -23.724000    12.500000   -27.496000
     58      N       -25.056000    10.269000   -22.714000
     59      C       -23.741000     9.637000   -22.776000
     60      C       -23.352000     9.554000   -24.262000
     61      O       -24.160000     9.128000   -25.091000
     62      C       -23.794000     8.200000   -22.212000
     63      C       -23.938000     8.091000   -20.678000
     64      C       -24.148000     6.622000   -20.273000
     65      C       -22.730000     8.682000   -19.929000
     66      H       -25.850000     9.676000   -22.903000
     67      H       -23.018000    10.235000   -22.230000
     68      H       -24.614000     7.659000   -22.689000
     69      H       -22.886000     7.666000   -22.500000
     70      H       -24.827000     8.645000   -20.373000
     71      H       -24.304000     6.521000   -19.199000
     72      H       -25.023000     6.197000   -20.766000
     73      H       -23.286000     6.009000   -20.540000
     74      H       -22.810000     8.514000   -18.855000
     75      H       -21.794000     8.234000   -20.266000
     76      H       -22.652000     9.758000   -20.074000
     77      N       -22.121000     9.973000   -24.591000
     78      C       -21.586000     9.991000   -25.952000
     79      C       -21.363000     8.563000   -26.479000
     80      O       -21.090000     7.638000   -25.713000
     81      C       -20.261000    10.788000   -25.980000
     82      C       -20.361000    12.242000   -25.460000
     83      C       -21.397000    13.114000   -26.176000
     84      O       -22.027000    13.935000   -25.475000
     85      O       -21.551000    12.953000   -27.407000
     86      H       -21.519000    10.314000   -23.853000
     87      H       -22.318000    10.477000   -26.599000
     88      H       -19.508000    10.264000   -25.390000
     89      H       -19.871000    10.806000   -27.000000
     90      H       -20.579000    12.244000   -24.392000
     91      H       -19.395000    12.729000   -25.568000
     92      N       -21.519000     8.393000   -27.800000
     93      C       -21.481000     7.104000   -28.497000
     94      C       -20.047000     6.649000   -28.833000
     95      O       -19.844000     5.496000   -29.210000
     96      C       -22.271000     7.271000   -29.814000
     97      C       -23.785000     7.418000   -29.574000
     98      C       -24.571000     7.732000   -30.857000
     99      C       -26.092000     7.762000   -30.639000
    100      N       -26.504000     8.875000   -29.764000
    101      H       -21.714000     9.209000   -28.362000
    102      H       -21.948000     6.330000   -27.884000
    103      H       -21.896000     8.137000   -30.363000
    104      H       -22.110000     6.410000   -30.464000
    105      H       -24.164000     6.497000   -29.128000
    106      H       -23.968000     8.207000   -28.844000
    107      H       -24.234000     8.682000   -31.276000
    108      H       -24.342000     6.973000   -31.606000
    109      H       -26.599000     7.875000   -31.597000
    110      H       -26.434000     6.821000   -30.208000
    111      H       -26.232000     9.755000   -30.179000
    112      H       -27.507000     8.861000   -29.642000
    113      H       -26.060000     8.784000   -28.861000
    114      N       -19.064000     7.548000   -28.681000
    115      C       -17.644000     7.375000   -28.969000
    116      C       -16.821000     8.314000   -28.059000
    117      O       -17.376000     9.304000   -27.575000
    118      C       -17.396000     7.524000   -30.494000
    119      C       -17.379000     8.964000   -31.061000
    120      C       -18.766000     9.615000   -31.069000
    121      O       -18.935000    10.614000   -30.338000
    122      O       -19.641000     9.086000   -31.789000
    123      H       -19.329000     8.470000   -28.362000
    124      H       -17.411000     6.348000   -28.689000
    125      H       -16.431000     7.076000   -30.728000
    126      H       -18.115000     6.919000   -31.049000
    127      H       -16.672000     9.596000   -30.523000
    128      H       -17.028000     8.936000   -32.093000
    129      N       -15.519000     8.027000   -27.802000
    130      C       -14.614000     8.886000   -27.017000
    131      C       -14.565000    10.343000   -27.511000
    132      O       -14.469000    10.595000   -28.713000
    133      C       -13.222000     8.248000   -27.142000
    134      C       -13.483000     6.796000   -27.493000
    135      C       -14.838000     6.791000   -28.199000
    136      H       -14.943000     8.853000   -25.977000
    137      H       -12.645000     8.702000   -27.950000
    138      H       -12.637000     8.353000   -26.228000
    139      H       -12.690000     6.357000   -28.099000
    140      H       -13.554000     6.214000   -26.574000
    141      H       -15.398000     5.894000   -27.939000
    142      H       -14.688000     6.799000   -29.279000
    143      N       -14.619000    11.288000   -26.564000
    144      C       -14.580000    12.728000   -26.798000
    145      C       -13.110000    13.114000   -27.035000
    146      O       -12.252000    12.874000   -26.183000
    147      C       -15.132000    13.465000   -25.543000
    148      C       -16.574000    13.040000   -25.175000
    149      C       -15.079000    15.000000   -25.706000
    150      C       -16.872000    13.186000   -23.677000
    151      H       -14.673000    10.988000   -25.598000
    152      H       -15.190000    12.978000   -27.669000
    153      H       -14.498000    13.196000   -24.699000
    154      H       -17.287000    13.623000   -25.759000
    155      H       -16.765000    12.000000   -25.438000
    156      H       -15.534000    15.503000   -24.855000
    157      H       -14.058000    15.375000   -25.784000
    158      H       -15.618000    15.322000   -26.596000
    159      H       -17.894000    12.883000   -23.455000
    160      H       -16.209000    12.552000   -23.090000
    161      H       -16.745000    14.211000   -23.332000
    162      N       -12.836000    13.718000   -28.201000
    163      C       -11.513000    14.182000   -28.617000
    164      C       -11.179000    15.464000   -27.832000
    165      O       -11.963000    16.413000   -27.821000
    166      C       -11.529000    14.455000   -30.148000
    167      C       -10.183000    14.991000   -30.677000
    168      C       -11.924000    13.198000   -30.950000
    169      H       -13.597000    13.875000   -28.845000
    170      H       -10.776000    13.407000   -28.396000
    171      H       -12.282000    15.216000   -30.356000
    172      H       -10.216000    15.136000   -31.757000
    173      H        -9.923000    15.955000   -30.240000
    174      H        -9.369000    14.298000   -30.462000
    175      H       -11.920000    13.398000   -32.022000
    176      H       -11.230000    12.377000   -30.765000
    177      H       -12.925000    12.849000   -30.697000
    178      N       -10.010000    15.468000   -27.174000
    179      C        -9.508000    16.575000   -26.364000
    180      C        -9.925000    16.533000   -24.885000
    181      O        -9.496000    17.403000   -24.130000
    182      H        -9.429000    14.645000   -27.233000
    183      H        -8.419000    16.555000   -26.410000
    184      H        -9.814000    17.532000   -26.790000
    185      N       -10.727000    15.539000   -24.462000
    186      C       -11.110000    15.303000   -23.069000
    187      C       -10.143000    14.302000   -22.417000
    188      O        -9.626000    13.399000   -23.078000
    189      C       -12.511000    14.675000   -23.051000
    190      H       -11.043000    14.863000   -25.144000
    191      H       -11.125000    16.236000   -22.503000
    192      H       -12.822000    14.421000   -22.038000
    193      H       -13.252000    15.367000   -23.450000
    194      H       -12.550000    13.763000   -23.643000
    195      N        -9.920000    14.462000   -21.102000
    196      C        -9.074000    13.597000   -20.279000
    197      C        -9.809000    12.278000   -19.979000
    198      O       -10.997000    12.286000   -19.649000
    199      C        -8.752000    14.346000   -18.969000
    200      C        -7.791000    13.607000   -18.009000
    201      C        -7.331000    14.472000   -16.831000
    202      O        -8.032000    15.459000   -16.517000
    203      O        -6.274000    14.141000   -16.250000
    204      H       -10.405000    15.209000   -20.627000
    205      H        -8.144000    13.394000   -20.814000
    206      H        -8.314000    15.310000   -19.228000
    207      H        -9.682000    14.578000   -18.447000
    208      H        -8.258000    12.706000   -17.611000
    209      H        -6.906000    13.280000   -18.555000
    210      N        -9.091000    11.155000   -20.121000
    211      C        -9.602000     9.797000   -19.958000
    212      C        -9.174000     9.286000   -18.583000
    213      O        -7.984000     9.130000   -18.331000
    214      C        -9.013000     8.894000   -21.072000
    215      O        -9.377000     9.422000   -22.335000
    216      C        -9.543000     7.449000   -21.030000
    217      H        -8.108000    11.244000   -20.347000
    218      H       -10.682000     9.782000   -20.005000
    219      H        -7.924000     8.877000   -21.019000
    220      H        -8.995000    10.283000   -22.417000
    221      H        -9.140000     6.858000   -21.853000
    222      H        -9.270000     6.940000   -20.106000
    223      H       -10.631000     7.428000   -21.108000
    224      N       -10.162000     9.023000   -17.717000
    225      C       -10.003000     8.513000   -16.361000
    226      C       -10.316000     7.013000   -16.364000
    227      O       -11.467000     6.611000   -16.525000
    228      C       -11.026000     9.221000   -15.444000
    229      C       -10.650000    10.637000   -15.049000
    230      C       -10.685000    11.680000   -15.997000
    231      C       -10.273000    10.919000   -13.721000
    232      C       -10.338000    12.989000   -15.619000
    233      C        -9.940000    12.232000   -13.339000
    234      C        -9.969000    13.266000   -14.290000
    235      H       -11.112000     9.188000   -18.027000
    236      H        -8.993000     8.676000   -15.984000
    237      H       -12.013000     9.242000   -15.909000
    238      H       -11.150000     8.648000   -14.522000
    239      H       -10.981000    11.482000   -17.016000
    240      H       -10.258000    10.131000   -12.985000
    241      H       -10.373000    13.787000   -16.345000
    242      H        -9.671000    12.448000   -12.317000
    243      H        -9.726000    14.274000   -13.995000
    244      N        -9.287000     6.189000   -16.139000
    245      C        -9.410000     4.753000   -15.925000
    246      C        -9.648000     4.557000   -14.426000
    247      O        -8.729000     4.722000   -13.625000
    248      C        -8.092000     4.075000   -16.329000
    249      C        -7.805000     4.148000   -17.815000
    250      C        -7.054000     5.222000   -18.338000
    251      C        -8.296000     3.148000   -18.678000
    252      C        -6.801000     5.298000   -19.721000
    253      C        -8.038000     3.222000   -20.060000
    254      C        -7.294000     4.298000   -20.582000
    255      O        -7.054000     4.368000   -21.922000
    256      H        -8.370000     6.595000   -15.995000
    257      H       -10.231000     4.334000   -16.506000
    258      H        -7.250000     4.513000   -15.796000
    259      H        -8.121000     3.023000   -16.039000